2025-10-20 23:11:16,797 - INFO - 📌 第一个 epoch：默认所有模块使用 checkpoint
2025-10-20 23:11:20,523 - INFO - Epoch 1 completed in 3.740444 seconds
2025-10-20 23:11:21,700 - INFO - torch.cuda.max_memory_reserved() : 4.37890625
2025-10-20 23:11:24,906 - INFO - 
[🔁 拟合反向传播时间模型]
2025-10-20 23:11:24,907 - INFO - 总反向传播时间: 3.183385s
2025-10-20 23:11:24,907 - INFO - 拟合模型: backward_total ≈ 2 × (A + B) + b
2025-10-20 23:11:24,907 - INFO - A = 2.310958, B = 0.224251, b = 0.648176s
2025-10-20 23:11:24,929 - INFO - Set parameter LicenseID to value 2706656
2025-10-20 23:11:24,953 - INFO - Set parameter LogToConsole to value 1
2025-10-20 23:11:24,954 - INFO - Set parameter LogFile to value ""
2025-10-20 23:11:24,954 - INFO - Set parameter Threads to value 12
2025-10-20 23:11:24,955 - INFO - Set parameter TimeLimit to value 3600
2025-10-20 23:11:24,955 - INFO - Set parameter OptimalityTol to value 0.0001
2025-10-20 23:11:24,955 - INFO - Set parameter IntFeasTol to value 1e-05
2025-10-20 23:11:24,955 - INFO - Set parameter StartNodeLimit to value 10000000
2025-10-20 23:11:25,028 - INFO - Set parameter TimeLimit to value 3600
2025-10-20 23:11:25,028 - INFO - 
2025-10-20 23:11:25,028 - INFO - 
2025-10-20 23:11:25,028 - INFO - Restarting solve
2025-10-20 23:11:25,028 - INFO - 
2025-10-20 23:11:25,028 - INFO - 
2025-10-20 23:11:25,030 - INFO - Gurobi Optimizer version 12.0.3 build v12.0.3rc0 (linux64 - "Ubuntu 20.04.6 LTS")
2025-10-20 23:11:25,030 - INFO - 
2025-10-20 23:11:25,030 - INFO - CPU model: Intel(R) Xeon(R) Platinum 8260 CPU @ 2.40GHz, instruction set [SSE2|AVX|AVX2|AVX512]
2025-10-20 23:11:25,030 - INFO - Thread count: 48 physical cores, 96 logical processors, using up to 12 threads
2025-10-20 23:11:25,030 - INFO - 
2025-10-20 23:11:25,030 - INFO - Non-default parameters:
2025-10-20 23:11:25,030 - INFO - TimeLimit  3600
2025-10-20 23:11:25,030 - INFO - OptimalityTol  0.0001
2025-10-20 23:11:25,030 - INFO - StartNodeLimit  10000000
2025-10-20 23:11:25,030 - INFO - Threads  12
2025-10-20 23:11:25,031 - INFO - 
2025-10-20 23:11:25,031 - INFO - Optimize a model with 5603 rows, 3584 columns and 15200 nonzeros
2025-10-20 23:11:25,031 - INFO - Model fingerprint: 0x64a3a717
2025-10-20 23:11:25,031 - INFO - Variable types: 1024 continuous, 2560 integer (2560 binary)
2025-10-20 23:11:25,031 - INFO - Coefficient statistics:
2025-10-20 23:11:25,031 - INFO -   Matrix range     [1e+00, 2e+15]
2025-10-20 23:11:25,031 - INFO -   Objective range  [7e+04, 6e+05]
2025-10-20 23:11:25,031 - INFO -   Bounds range     [1e+00, 5e+15]
2025-10-20 23:11:25,031 - INFO -   RHS range        [1e+00, 5e+15]
2025-10-20 23:11:25,031 - INFO - Warning: Model contains large matrix coefficient range
2025-10-20 23:11:25,031 - INFO - Warning: Model contains large rhs
2025-10-20 23:11:25,031 - INFO - Warning: Model contains large bounds
2025-10-20 23:11:25,031 - INFO -          Consider reformulating model or setting NumericFocus parameter
2025-10-20 23:11:25,031 - INFO -          to avoid numerical issues.
2025-10-20 23:11:25,045 - INFO - Presolve removed 4283 rows and 1964 columns
2025-10-20 23:11:25,045 - INFO - Presolve time: 0.01s
2025-10-20 23:11:25,045 - INFO - Presolved: 1320 rows, 1620 columns, 4514 nonzeros
2025-10-20 23:11:25,047 - INFO - Variable types: 0 continuous, 1620 integer (1095 binary)
2025-10-20 23:11:25,058 - INFO - 
2025-10-20 23:11:25,058 - INFO - Root relaxation: objective 1.219846e+07, 465 iterations, 0.00 seconds (0.01 work units)
2025-10-20 23:11:25,064 - INFO - 
2025-10-20 23:11:25,064 - INFO -     Nodes    |    Current Node    |     Objective Bounds      |     Work
2025-10-20 23:11:25,064 - INFO -  Expl Unexpl |  Obj  Depth IntInf | Incumbent    BestBd   Gap | It/Node Time
2025-10-20 23:11:25,064 - INFO - 
2025-10-20 23:11:25,064 - INFO -      0     0 1.2198e+07    0   74          - 1.2198e+07      -     -    0s
2025-10-20 23:11:25,067 - INFO - H    0     0                    1.250067e+07 1.2198e+07  2.42%     -    0s
2025-10-20 23:11:25,103 - INFO -      0     0 1.2222e+07    0   72 1.2501e+07 1.2222e+07  2.23%     -    0s
2025-10-20 23:11:25,127 - INFO -      0     0 1.2360e+07    0   10 1.2501e+07 1.2360e+07  1.12%     -    0s
2025-10-20 23:11:25,142 - INFO -      0     0 1.2383e+07    0   20 1.2501e+07 1.2383e+07  0.95%     -    0s
2025-10-20 23:11:25,158 - INFO -      0     0 1.2406e+07    0   18 1.2501e+07 1.2406e+07  0.76%     -    0s
2025-10-20 23:11:25,204 - INFO - 
2025-10-20 23:11:25,204 - INFO - Explored 4 nodes (1161 simplex iterations) in 0.17 seconds (0.08 work units)
2025-10-20 23:11:25,204 - INFO - Thread count was 12 (of 96 available processors)
2025-10-20 23:11:25,204 - INFO - 
2025-10-20 23:11:25,204 - INFO - Solution count 1: 1.25007e+07 
2025-10-20 23:11:25,204 - INFO - 
2025-10-20 23:11:25,204 - INFO - Optimal solution found (tolerance 1.00e-04)
2025-10-20 23:11:25,204 - INFO - Best objective 1.250067000000e+07, best bound 1.250067000000e+07, gap 0.0000%
2025-10-20 23:11:25,217 - INFO - 规划前的显存GB：4.0
2025-10-20 23:11:25,217 - INFO - 规划后的显存GB：2.967146396636963
2025-10-20 23:11:25,217 - INFO - ✅ 最优策略：[1, 1, 1, 1, 1, 0, 0, 0, 0, 0, 0, 0, 0, 0, 0, 0]
2025-10-20 23:11:25,217 - INFO - 📌 checkpoint 的欧氏长度:, [242, 283, 324]
2025-10-20 23:11:25,217 - INFO - 📌 checkpoint 的余弦长度:, [40, 80, 121, 161, 202, 242, 283, 324]
2025-10-20 23:11:25,217 - INFO - 💾 最终显存峰值：%.2f MB % 8692.373695373535
2025-10-20 23:11:25,218 - INFO - Epoch 2 completed in 3.517014 seconds
2025-10-20 23:11:25,218 - INFO - torch.cuda.max_memory_reserved() : 4.37890625
2025-10-20 23:11:28,177 - INFO - Epoch 3 completed in 2.958363 seconds
2025-10-20 23:11:28,177 - INFO - 
====================== [第1个 Epoch 收集统计数据] ======================
2025-10-20 23:11:28,177 - INFO - 
🔍 EUCLIDEAN modules:
2025-10-20 23:11:28,177 - INFO - [Shapelet  40] forward_avg=0.004259s over 12 calls | peak=343.57MB | final=0.00MB
2025-10-20 23:11:28,177 - INFO - [Shapelet  80] forward_avg=0.004409s over 12 calls | peak=601.19MB | final=0.00MB
2025-10-20 23:11:28,177 - INFO - [Shapelet 121] forward_avg=0.005473s over 12 calls | peak=791.72MB | final=0.00MB
2025-10-20 23:11:28,177 - INFO - [Shapelet 161] forward_avg=0.005641s over 12 calls | peak=905.43MB | final=0.00MB
2025-10-20 23:11:28,177 - INFO - [Shapelet 202] forward_avg=0.005924s over 12 calls | peak=946.48MB | final=0.00MB
2025-10-20 23:11:28,177 - INFO - [Shapelet 242] forward_avg=0.005435s over 12 calls | peak=915.59MB | final=0.00MB
2025-10-20 23:11:28,177 - INFO - [Shapelet 283] forward_avg=0.005005s over 12 calls | peak=810.62MB | final=0.00MB
2025-10-20 23:11:28,178 - INFO - [Shapelet 324] forward_avg=0.004749s over 12 calls | peak=628.61MB | final=0.00MB
2025-10-20 23:11:28,178 - INFO - 
🔍 COSINE modules:
2025-10-20 23:11:28,178 - INFO - [Shapelet  40] forward_avg=0.002681s over 12 calls | peak=220.75MB | final=0.00MB
2025-10-20 23:11:28,178 - INFO - [Shapelet  80] forward_avg=0.002580s over 12 calls | peak=390.83MB | final=0.00MB
2025-10-20 23:11:28,178 - INFO - [Shapelet 121] forward_avg=0.002841s over 12 calls | peak=515.69MB | final=0.00MB
2025-10-20 23:11:28,178 - INFO - [Shapelet 161] forward_avg=0.003021s over 12 calls | peak=589.82MB | final=0.00MB
2025-10-20 23:11:28,178 - INFO - [Shapelet 202] forward_avg=0.003313s over 12 calls | peak=615.21MB | final=0.00MB
2025-10-20 23:11:28,178 - INFO - [Shapelet 242] forward_avg=0.003193s over 12 calls | peak=592.28MB | final=0.00MB
2025-10-20 23:11:28,178 - INFO - [Shapelet 283] forward_avg=0.002734s over 12 calls | peak=520.11MB | final=0.00MB
2025-10-20 23:11:28,178 - INFO - [Shapelet 324] forward_avg=0.002937s over 12 calls | peak=396.44MB | final=0.00MB
2025-10-20 23:11:28,178 - INFO - 
🔍 CROSS modules:
2025-10-20 23:11:28,178 - INFO - [Shapelet  40] forward_avg=0.003337s over 12 calls
2025-10-20 23:11:28,178 - INFO - [Shapelet  80] forward_avg=0.000704s over 12 calls
2025-10-20 23:11:28,178 - INFO - [Shapelet 121] forward_avg=0.000723s over 12 calls
2025-10-20 23:11:28,178 - INFO - [Shapelet 161] forward_avg=0.000810s over 12 calls
2025-10-20 23:11:28,178 - INFO - [Shapelet 202] forward_avg=0.000910s over 12 calls
2025-10-20 23:11:28,178 - INFO - [Shapelet 242] forward_avg=0.000879s over 12 calls
2025-10-20 23:11:28,178 - INFO - [Shapelet 283] forward_avg=0.000940s over 12 calls
2025-10-20 23:11:28,178 - INFO - [Shapelet 324] forward_avg=0.001040s over 12 calls
2025-10-20 23:11:28,179 - INFO - 
💾 模型第一次反向传播阶段的显存峰值（所有模块中的最大值）: 3947.98 MB
2025-10-20 23:11:28,179 - INFO - 
💾 模型初始显存: 23.05 MB
2025-10-20 23:11:28,179 - INFO - =======================================================================

2025-10-20 23:11:28,179 - INFO - torch.cuda.max_memory_reserved() : 4.6796875
2025-10-20 23:11:30,989 - INFO - Epoch 4 completed in 2.809218 seconds
2025-10-20 23:11:30,989 - INFO - torch.cuda.max_memory_reserved() : 4.6796875
2025-10-20 23:11:34,002 - INFO - Epoch 5 completed in 3.012331 seconds
2025-10-20 23:11:34,003 - INFO - torch.cuda.max_memory_reserved() : 4.6796875
2025-10-20 23:11:36,814 - INFO - Epoch 6 completed in 2.809569 seconds
2025-10-20 23:11:36,815 - INFO - torch.cuda.max_memory_reserved() : 4.6796875
2025-10-20 23:11:39,706 - INFO - Epoch 7 completed in 2.889547 seconds
2025-10-20 23:11:39,706 - INFO - torch.cuda.max_memory_reserved() : 4.6796875
2025-10-20 23:11:42,504 - INFO - Epoch 8 completed in 2.796670 seconds
2025-10-20 23:11:42,504 - INFO - torch.cuda.max_memory_reserved() : 4.6796875
2025-10-20 23:11:45,190 - INFO - Epoch 9 completed in 2.685288 seconds
2025-10-20 23:11:45,190 - INFO - torch.cuda.max_memory_reserved() : 4.6796875
2025-10-20 23:11:47,947 - INFO - Epoch 10 completed in 2.756219 seconds
2025-10-20 23:11:49,091 - INFO - torch.cuda.max_memory_reserved() : 4.6796875
2025-10-20 23:11:49,092 - INFO - !!!采用策略后的几个epoch 平均时间:2.8396506905555725
2025-10-20 23:11:49,092 - INFO - 



2025-10-21 10:02:32,029 - INFO - 📌 第一个 epoch：默认所有模块使用 checkpoint
2025-10-21 10:02:35,333 - INFO - Epoch 1 completed in 3.311441 seconds
2025-10-21 10:02:36,393 - INFO - torch.cuda.max_memory_reserved() : 4.37890625
2025-10-21 10:02:39,181 - INFO - 
[🔁 拟合反向传播时间模型]
2025-10-21 10:02:39,182 - INFO - 总反向传播时间: 2.769817s
2025-10-21 10:02:39,182 - INFO - 拟合模型: backward_total ≈ 2 × (A + B) + b
2025-10-21 10:02:39,182 - INFO - A = 2.112659, B = 0.202047, b = 0.455111s
2025-10-21 10:02:39,224 - INFO - Set parameter LicenseID to value 2706656
2025-10-21 10:02:39,251 - INFO - Set parameter LogToConsole to value 1
2025-10-21 10:02:39,251 - INFO - Set parameter LogFile to value ""
2025-10-21 10:02:39,251 - INFO - Set parameter Threads to value 12
2025-10-21 10:02:39,251 - INFO - Set parameter TimeLimit to value 3600
2025-10-21 10:02:39,251 - INFO - Set parameter OptimalityTol to value 0.0001
2025-10-21 10:02:39,252 - INFO - Set parameter IntFeasTol to value 1e-05
2025-10-21 10:02:39,252 - INFO - Set parameter StartNodeLimit to value 10000000
2025-10-21 10:02:39,308 - INFO - Set parameter TimeLimit to value 3600
2025-10-21 10:02:39,308 - INFO - 
2025-10-21 10:02:39,308 - INFO - 
2025-10-21 10:02:39,308 - INFO - Restarting solve
2025-10-21 10:02:39,308 - INFO - 
2025-10-21 10:02:39,308 - INFO - 
2025-10-21 10:02:39,310 - INFO - Gurobi Optimizer version 12.0.3 build v12.0.3rc0 (linux64 - "Ubuntu 20.04.6 LTS")
2025-10-21 10:02:39,310 - INFO - 
2025-10-21 10:02:39,310 - INFO - CPU model: Intel(R) Xeon(R) Platinum 8260 CPU @ 2.40GHz, instruction set [SSE2|AVX|AVX2|AVX512]
2025-10-21 10:02:39,310 - INFO - Thread count: 48 physical cores, 96 logical processors, using up to 12 threads
2025-10-21 10:02:39,310 - INFO - 
2025-10-21 10:02:39,310 - INFO - Non-default parameters:
2025-10-21 10:02:39,310 - INFO - TimeLimit  3600
2025-10-21 10:02:39,310 - INFO - OptimalityTol  0.0001
2025-10-21 10:02:39,310 - INFO - StartNodeLimit  10000000
2025-10-21 10:02:39,310 - INFO - Threads  12
2025-10-21 10:02:39,310 - INFO - 
2025-10-21 10:02:39,310 - INFO - Optimize a model with 5603 rows, 3584 columns and 15200 nonzeros
2025-10-21 10:02:39,310 - INFO - Model fingerprint: 0xd57a10b9
2025-10-21 10:02:39,310 - INFO - Variable types: 1024 continuous, 2560 integer (2560 binary)
2025-10-21 10:02:39,310 - INFO - Coefficient statistics:
2025-10-21 10:02:39,311 - INFO -   Matrix range     [1e+00, 2e+15]
2025-10-21 10:02:39,311 - INFO -   Objective range  [6e+04, 6e+05]
2025-10-21 10:02:39,311 - INFO -   Bounds range     [1e+00, 5e+15]
2025-10-21 10:02:39,311 - INFO -   RHS range        [1e+00, 5e+15]
2025-10-21 10:02:39,311 - INFO - Warning: Model contains large matrix coefficient range
2025-10-21 10:02:39,311 - INFO - Warning: Model contains large rhs
2025-10-21 10:02:39,311 - INFO - Warning: Model contains large bounds
2025-10-21 10:02:39,311 - INFO -          Consider reformulating model or setting NumericFocus parameter
2025-10-21 10:02:39,311 - INFO -          to avoid numerical issues.
2025-10-21 10:02:39,324 - INFO - Presolve removed 4283 rows and 1964 columns
2025-10-21 10:02:39,324 - INFO - Presolve time: 0.01s
2025-10-21 10:02:39,324 - INFO - Presolved: 1320 rows, 1620 columns, 4514 nonzeros
2025-10-21 10:02:39,326 - INFO - Variable types: 0 continuous, 1620 integer (1095 binary)
2025-10-21 10:02:39,336 - INFO - 
2025-10-21 10:02:39,336 - INFO - Root relaxation: objective 1.140730e+07, 465 iterations, 0.00 seconds (0.01 work units)
2025-10-21 10:02:39,342 - INFO - 
2025-10-21 10:02:39,342 - INFO -     Nodes    |    Current Node    |     Objective Bounds      |     Work
2025-10-21 10:02:39,342 - INFO -  Expl Unexpl |  Obj  Depth IntInf | Incumbent    BestBd   Gap | It/Node Time
2025-10-21 10:02:39,342 - INFO - 
2025-10-21 10:02:39,343 - INFO -      0     0 1.1407e+07    0   74          - 1.1407e+07      -     -    0s
2025-10-21 10:02:39,345 - INFO - H    0     0                    1.169412e+07 1.1407e+07  2.45%     -    0s
2025-10-21 10:02:39,384 - INFO -      0     0 1.1449e+07    0  117 1.1694e+07 1.1449e+07  2.10%     -    0s
2025-10-21 10:02:39,403 - INFO -      0     0 1.1565e+07    0   12 1.1694e+07 1.1565e+07  1.10%     -    0s
2025-10-21 10:02:39,415 - INFO -      0     0 1.1601e+07    0   12 1.1694e+07 1.1601e+07  0.80%     -    0s
2025-10-21 10:02:39,435 - INFO -      0     0 1.1656e+07    0    9 1.1694e+07 1.1656e+07  0.33%     -    0s
2025-10-21 10:02:39,438 - INFO -      0     0 1.1656e+07    0    9 1.1694e+07 1.1656e+07  0.33%     -    0s
2025-10-21 10:02:39,471 - INFO - 
2025-10-21 10:02:39,471 - INFO - Explored 4 nodes (1136 simplex iterations) in 0.16 seconds (0.08 work units)
2025-10-21 10:02:39,471 - INFO - Thread count was 12 (of 96 available processors)
2025-10-21 10:02:39,471 - INFO - 
2025-10-21 10:02:39,471 - INFO - Solution count 1: 1.16941e+07 
2025-10-21 10:02:39,471 - INFO - 
2025-10-21 10:02:39,471 - INFO - Optimal solution found (tolerance 1.00e-04)
2025-10-21 10:02:39,472 - INFO - Best objective 1.169412200000e+07, best bound 1.169412200000e+07, gap 0.0000%
2025-10-21 10:02:39,482 - INFO - 规划前的显存GB：4.0
2025-10-21 10:02:39,482 - INFO - 规划后的显存GB：2.967146396636963
2025-10-21 10:02:39,482 - INFO - ✅ 最优策略：[1, 1, 1, 1, 1, 0, 0, 0, 0, 0, 0, 0, 0, 0, 0, 0]
2025-10-21 10:02:39,482 - INFO - 📌 checkpoint 的欧氏长度:, [242, 283, 324]
2025-10-21 10:02:39,482 - INFO - 📌 checkpoint 的余弦长度:, [40, 80, 121, 161, 202, 242, 283, 324]
2025-10-21 10:02:39,483 - INFO - 💾 最终显存峰值：%.2f MB % 8692.373695373535
2025-10-21 10:02:39,483 - INFO - Epoch 2 completed in 3.089359 seconds
2025-10-21 10:02:39,483 - INFO - torch.cuda.max_memory_reserved() : 4.37890625
2025-10-21 10:02:41,992 - INFO - Epoch 3 completed in 2.508232 seconds
2025-10-21 10:02:41,992 - INFO - 
====================== [第1个 Epoch 收集统计数据] ======================
2025-10-21 10:02:41,992 - INFO - 
🔍 EUCLIDEAN modules:
2025-10-21 10:02:41,992 - INFO - [Shapelet  40] forward_avg=0.003877s over 12 calls | peak=343.57MB | final=0.00MB
2025-10-21 10:02:41,993 - INFO - [Shapelet  80] forward_avg=0.004122s over 12 calls | peak=601.19MB | final=0.00MB
2025-10-21 10:02:41,993 - INFO - [Shapelet 121] forward_avg=0.005104s over 12 calls | peak=791.72MB | final=0.00MB
2025-10-21 10:02:41,993 - INFO - [Shapelet 161] forward_avg=0.005434s over 12 calls | peak=905.43MB | final=0.00MB
2025-10-21 10:02:41,993 - INFO - [Shapelet 202] forward_avg=0.005684s over 12 calls | peak=946.48MB | final=0.00MB
2025-10-21 10:02:41,993 - INFO - [Shapelet 242] forward_avg=0.005203s over 12 calls | peak=915.59MB | final=0.00MB
2025-10-21 10:02:41,993 - INFO - [Shapelet 283] forward_avg=0.004688s over 12 calls | peak=810.62MB | final=0.00MB
2025-10-21 10:02:41,993 - INFO - [Shapelet 324] forward_avg=0.004523s over 12 calls | peak=628.61MB | final=0.00MB
2025-10-21 10:02:41,993 - INFO - 
🔍 COSINE modules:
2025-10-21 10:02:41,994 - INFO - [Shapelet  40] forward_avg=0.002046s over 12 calls | peak=220.75MB | final=0.00MB
2025-10-21 10:02:41,994 - INFO - [Shapelet  80] forward_avg=0.002027s over 12 calls | peak=390.83MB | final=0.00MB
2025-10-21 10:02:41,994 - INFO - [Shapelet 121] forward_avg=0.002571s over 12 calls | peak=515.69MB | final=0.00MB
2025-10-21 10:02:41,994 - INFO - [Shapelet 161] forward_avg=0.002911s over 12 calls | peak=589.82MB | final=0.00MB
2025-10-21 10:02:41,994 - INFO - [Shapelet 202] forward_avg=0.003099s over 12 calls | peak=615.21MB | final=0.00MB
2025-10-21 10:02:41,994 - INFO - [Shapelet 242] forward_avg=0.002924s over 12 calls | peak=592.28MB | final=0.00MB
2025-10-21 10:02:41,994 - INFO - [Shapelet 283] forward_avg=0.002329s over 12 calls | peak=520.11MB | final=0.00MB
2025-10-21 10:02:41,994 - INFO - [Shapelet 324] forward_avg=0.002144s over 12 calls | peak=396.44MB | final=0.00MB
2025-10-21 10:02:41,994 - INFO - 
🔍 CROSS modules:
2025-10-21 10:02:41,994 - INFO - [Shapelet  40] forward_avg=0.002901s over 12 calls
2025-10-21 10:02:41,995 - INFO - [Shapelet  80] forward_avg=0.000571s over 12 calls
2025-10-21 10:02:41,995 - INFO - [Shapelet 121] forward_avg=0.000641s over 12 calls
2025-10-21 10:02:41,995 - INFO - [Shapelet 161] forward_avg=0.000759s over 12 calls
2025-10-21 10:02:41,995 - INFO - [Shapelet 202] forward_avg=0.000855s over 12 calls
2025-10-21 10:02:41,995 - INFO - [Shapelet 242] forward_avg=0.000823s over 12 calls
2025-10-21 10:02:41,995 - INFO - [Shapelet 283] forward_avg=0.000888s over 12 calls
2025-10-21 10:02:41,995 - INFO - [Shapelet 324] forward_avg=0.000981s over 12 calls
2025-10-21 10:02:41,995 - INFO - 
💾 模型第一次反向传播阶段的显存峰值（所有模块中的最大值）: 3947.98 MB
2025-10-21 10:02:41,995 - INFO - 
💾 模型初始显存: 23.05 MB
2025-10-21 10:02:41,995 - INFO - =======================================================================

2025-10-21 10:02:41,996 - INFO - torch.cuda.max_memory_reserved() : 4.6796875
2025-10-21 10:02:44,414 - INFO - Epoch 4 completed in 2.417755 seconds
2025-10-21 10:02:44,414 - INFO - torch.cuda.max_memory_reserved() : 4.6796875
2025-10-21 10:02:47,049 - INFO - Epoch 5 completed in 2.634203 seconds
2025-10-21 10:02:47,049 - INFO - torch.cuda.max_memory_reserved() : 4.6796875
2025-10-21 10:02:49,527 - INFO - Epoch 6 completed in 2.477510 seconds
2025-10-21 10:02:49,528 - INFO - torch.cuda.max_memory_reserved() : 4.6796875
2025-10-21 10:02:52,028 - INFO - Epoch 7 completed in 2.500326 seconds
2025-10-21 10:02:52,029 - INFO - torch.cuda.max_memory_reserved() : 4.6796875
2025-10-21 10:02:54,510 - INFO - Epoch 8 completed in 2.480502 seconds
2025-10-21 10:02:54,510 - INFO - torch.cuda.max_memory_reserved() : 4.6796875
2025-10-21 10:02:56,980 - INFO - Epoch 9 completed in 2.469797 seconds
2025-10-21 10:02:56,981 - INFO - torch.cuda.max_memory_reserved() : 4.6796875
2025-10-21 10:02:59,504 - INFO - Epoch 10 completed in 2.522913 seconds
2025-10-21 10:03:00,549 - INFO - torch.cuda.max_memory_reserved() : 4.6796875
2025-10-21 10:03:00,550 - INFO - !!!采用策略后的几个epoch 平均时间:2.5014050006866455
2025-10-21 10:03:00,550 - INFO - 



